% seed = 3339375

mint = 73;
% maxt = 258;

nActs = 42;
dur = [0,7,2,9,3,2,1,8,10,5,7,10,8,4,5,4,10,10,9,5,1,2,8,10,10,9,8,8,9,1,6,6,7,5,1,8,8,8,7,10,7,0];

nSkills = 4;
sreq = [| 0,0,0,0,
	| 4,4,2,5,
	| 2,3,3,4,
	| 7,6,3,0,
	| 6,4,0,0,
	| 3,6,2,0,
	| 0,5,4,0,
	| 4,2,6,2,
	| 3,0,4,6,
	| 0,4,3,3,
	| 2,2,6,3,
	| 5,3,4,0,
	| 1,3,7,3,
	| 2,2,2,3,
	| 6,0,6,2,
	| 1,4,4,5,
	| 3,1,7,0,
	| 1,0,0,6,
	| 6,0,0,5,
	| 2,2,6,6,
	| 3,0,2,4,
	| 5,0,0,7,
	| 0,0,6,4,
	| 5,2,0,3,
	| 6,4,0,3,
	| 6,0,4,5,
	| 0,0,4,5,
	| 0,7,5,0,
	| 3,0,3,7,
	| 1,3,1,3,
	| 2,5,3,5,
	| 4,0,3,3,
	| 0,7,0,5,
	| 3,4,4,0,
	| 1,4,1,4,
	| 3,0,4,0,
	| 3,7,0,6,
	| 7,4,4,7,
	| 2,4,4,2,
	| 3,0,7,2,
	| 5,4,0,2,
	| 0,0,0,0, |];

nResources = 30;
mastery = [| false,true,false,false,
	| false,true,false,false,
	| true,false,false,true,
	| false,true,true,true,
	| true,true,false,false,
	| false,false,false,true,
	| false,false,true,true,
	| true,false,false,true,
	| false,false,false,true,
	| true,false,false,true,
	| true,false,true,true,
	| true,false,true,true,
	| true,false,true,true,
	| true,true,true,false,
	| true,true,false,false,
	| false,false,false,true,
	| false,true,true,true,
	| true,false,true,true,
	| true,false,true,false,
	| true,true,false,false,
	| false,false,false,true,
	| false,true,true,true,
	| false,true,true,true,
	| true,true,false,true,
	| false,false,true,false,
	| true,true,false,true,
	| false,false,false,true,
	| true,true,false,true,
	| true,false,true,true,
	| true,true,false,false, |];

nPrecs = 61;
pred = [1,1,1,2,2,3,3,4,4,4,5,5,5,6,6,6,7,7,8,8,8,9,10,10,11,12,13,13,13,14,15,16,17,17,17,18,19,20,21,22,23,24,24,25,26,27,28,29,30,31,32,33,34,35,36,37,37,38,39,40,41];
succ = [2,3,4,5,24,28,38,12,30,16,6,7,8,9,10,19,17,20,37,14,31,27,11,36,13,24,34,30,15,18,23,35,25,21,22,33,36,32,26,40,29,26,32,26,34,38,31,35,37,39,35,38,39,36,40,41,39,41,42,42,42];

nUnrels = 540;
unpred = [2,2,2,2,2,3,3,3,3,3,3,3,3,3,3,3,3,3,3,3,3,3,3,3,3,3,3,3,3,3,3,3,3,3,3,3,3,3,4,4,4,4,4,4,4,4,4,4,4,4,4,4,4,4,4,4,4,4,4,4,4,4,5,5,5,5,6,6,6,6,6,6,6,6,6,6,6,6,6,6,6,6,6,7,7,7,7,7,7,7,7,7,7,7,7,7,7,7,7,7,7,7,7,7,7,8,8,8,8,8,8,8,8,8,8,8,8,8,8,8,8,8,8,8,8,8,8,8,8,8,9,9,9,9,9,9,9,9,9,9,9,9,9,9,9,9,9,9,9,9,9,9,9,9,9,9,9,9,9,10,10,10,10,10,10,10,10,10,10,10,10,10,10,10,10,10,10,11,11,11,11,11,11,11,11,11,11,11,11,11,11,11,11,11,11,12,12,12,12,12,12,12,12,12,12,12,12,12,12,12,12,12,12,12,12,12,13,13,13,13,13,13,13,13,13,13,13,13,13,13,13,13,13,14,14,14,14,14,14,14,14,14,14,14,14,14,14,14,14,14,14,14,14,14,14,14,15,15,15,15,15,15,15,15,15,15,15,15,15,15,15,15,15,15,15,15,15,16,16,16,16,16,16,16,16,16,16,16,16,16,16,16,16,16,16,16,16,16,16,17,17,17,17,17,17,17,17,17,17,17,17,17,17,17,17,17,18,18,18,18,18,18,18,18,18,18,18,18,18,18,18,18,18,18,18,18,19,19,19,19,19,19,19,19,19,19,19,19,19,19,19,19,19,19,19,19,20,20,20,20,20,20,20,20,20,20,20,20,20,20,20,20,20,21,21,21,21,21,21,21,21,21,21,21,21,21,21,21,21,21,22,22,22,22,22,22,22,22,22,22,22,22,22,22,22,22,22,22,23,23,23,23,23,23,23,23,23,23,23,23,23,23,24,24,24,24,24,24,24,24,24,24,25,25,25,25,25,25,25,25,25,25,25,25,25,26,26,26,26,26,26,26,26,26,26,26,26,26,27,27,27,27,27,27,27,27,27,27,27,27,28,28,28,28,28,28,28,28,28,28,28,29,29,29,29,29,29,29,29,29,30,30,30,30,30,30,30,30,31,31,31,31,31,31,31,31,31,32,32,32,32,32,32,33,33,33,33,33,33,34,34,34,34,34,34,35,35,35,35,36,36,36,36,37,37,38,38,39,39,40];
unsucc = [3,4,12,16,28,4,5,6,7,8,9,10,11,12,13,14,15,16,17,18,19,20,21,22,23,24,25,26,27,29,30,32,33,34,35,36,37,40,5,6,7,8,9,10,11,13,14,15,17,18,19,20,21,22,23,25,27,28,29,31,33,38,12,16,24,28,7,8,12,14,16,17,18,20,21,22,24,25,26,28,31,32,33,8,9,10,11,12,13,14,15,16,18,19,23,24,27,28,29,30,31,33,37,38,41,9,10,11,12,13,15,16,17,19,20,21,22,23,24,25,26,27,28,29,30,32,34,35,36,40,10,11,12,13,14,15,16,17,18,19,20,21,22,23,24,25,26,28,29,30,31,32,33,34,35,36,37,39,40,12,14,16,17,18,19,20,21,22,24,25,26,27,28,31,32,33,38,12,14,16,17,18,19,20,21,22,24,25,26,27,28,31,32,33,38,13,14,15,16,17,18,19,20,21,22,23,25,27,28,29,30,31,33,37,38,41,14,16,17,18,19,20,21,22,24,25,26,27,28,31,32,33,38,15,16,17,19,20,21,22,23,24,25,26,27,28,29,30,31,32,34,35,36,37,39,40,16,17,18,19,20,21,22,24,25,26,27,28,30,31,32,33,34,37,38,39,41,17,18,19,20,21,22,23,24,25,26,27,28,29,30,31,32,33,34,37,38,39,41,18,19,20,23,24,27,28,29,30,31,32,33,35,36,37,38,41,19,20,21,22,23,24,25,26,27,28,29,30,31,32,34,35,36,37,39,40,20,21,22,23,24,25,26,27,28,29,30,31,32,33,34,35,37,38,39,41,21,22,23,24,25,26,27,28,29,30,31,33,34,37,38,39,41,22,23,24,25,27,28,29,30,31,32,33,35,36,37,38,40,41,23,24,25,26,27,28,29,30,31,32,33,34,35,36,37,38,39,41,24,25,26,27,28,30,31,32,33,34,37,38,39,41,25,27,28,29,30,31,33,37,38,41,27,28,29,30,31,32,33,35,36,37,38,40,41,27,28,29,30,31,32,33,35,36,37,38,40,41,28,29,30,31,32,33,34,35,36,37,39,40,29,30,32,33,34,35,36,37,38,40,41,30,31,32,33,34,37,38,39,41,31,32,33,34,35,36,38,40,32,33,34,35,36,37,38,40,41,33,34,37,38,39,41,34,35,36,37,39,40,35,36,37,38,40,41,37,38,39,41,37,38,39,41,38,40,39,40,40,41,41];

USEFUL_RES = [{},
	{1,2,3,4,5,6,7,8,9,10,11,12,13,14,15,16,17,18,19,20,21,22,23,24,25,26,27,28,29,30},
	{1,2,3,4,5,6,7,8,9,10,11,12,13,14,15,16,17,18,19,20,21,22,23,24,25,26,27,28,29,30},
	{1,2,3,4,5,7,8,10,11,12,13,14,15,17,18,19,20,22,23,24,25,26,28,29,30},
	{1,2,3,4,5,8,10,11,12,13,14,15,17,18,19,20,22,23,24,26,28,29,30},
	{1,2,3,4,5,7,8,10,11,12,13,14,15,17,18,19,20,22,23,24,25,26,28,29,30},
	{1,2,4,5,7,11,12,13,14,15,17,18,19,20,22,23,24,25,26,28,29,30},
	{1,2,3,4,5,6,7,8,9,10,11,12,13,14,15,16,17,18,19,20,21,22,23,24,25,26,27,28,29,30},
	{3,4,5,6,7,8,9,10,11,12,13,14,15,16,17,18,19,20,21,22,23,24,25,26,27,28,29,30},
	{1,2,3,4,5,6,7,8,9,10,11,12,13,14,15,16,17,18,19,20,21,22,23,24,25,26,27,28,29,30},
	{1,2,3,4,5,6,7,8,9,10,11,12,13,14,15,16,17,18,19,20,21,22,23,24,25,26,27,28,29,30},
	{1,2,3,4,5,7,8,10,11,12,13,14,15,17,18,19,20,22,23,24,25,26,28,29,30},
	{1,2,3,4,5,6,7,8,9,10,11,12,13,14,15,16,17,18,19,20,21,22,23,24,25,26,27,28,29,30},
	{1,2,3,4,5,6,7,8,9,10,11,12,13,14,15,16,17,18,19,20,21,22,23,24,25,26,27,28,29,30},
	{3,4,5,6,7,8,9,10,11,12,13,14,15,16,17,18,19,20,21,22,23,24,25,26,27,28,29,30},
	{1,2,3,4,5,6,7,8,9,10,11,12,13,14,15,16,17,18,19,20,21,22,23,24,25,26,27,28,29,30},
	{1,2,3,4,5,7,8,10,11,12,13,14,15,17,18,19,20,22,23,24,25,26,28,29,30},
	{3,4,5,6,7,8,9,10,11,12,13,14,15,16,17,18,19,20,21,22,23,24,26,27,28,29,30},
	{3,4,5,6,7,8,9,10,11,12,13,14,15,16,17,18,19,20,21,22,23,24,26,27,28,29,30},
	{1,2,3,4,5,6,7,8,9,10,11,12,13,14,15,16,17,18,19,20,21,22,23,24,25,26,27,28,29,30},
	{3,4,5,6,7,8,9,10,11,12,13,14,15,16,17,18,19,20,21,22,23,24,25,26,27,28,29,30},
	{3,4,5,6,7,8,9,10,11,12,13,14,15,16,17,18,19,20,21,22,23,24,26,27,28,29,30},
	{3,4,6,7,8,9,10,11,12,13,14,16,17,18,19,21,22,23,24,25,26,27,28,29},
	{1,2,3,4,5,6,7,8,9,10,11,12,13,14,15,16,17,18,19,20,21,22,23,24,26,27,28,29,30},
	{1,2,3,4,5,6,7,8,9,10,11,12,13,14,15,16,17,18,19,20,21,22,23,24,26,27,28,29,30},
	{3,4,5,6,7,8,9,10,11,12,13,14,15,16,17,18,19,20,21,22,23,24,25,26,27,28,29,30},
	{3,4,6,7,8,9,10,11,12,13,14,16,17,18,19,21,22,23,24,25,26,27,28,29},
	{1,2,4,5,7,11,12,13,14,15,17,18,19,20,22,23,24,25,26,28,29,30},
	{3,4,5,6,7,8,9,10,11,12,13,14,15,16,17,18,19,20,21,22,23,24,25,26,27,28,29,30},
	{1,2,3,4,5,6,7,8,9,10,11,12,13,14,15,16,17,18,19,20,21,22,23,24,25,26,27,28,29,30},
	{1,2,3,4,5,6,7,8,9,10,11,12,13,14,15,16,17,18,19,20,21,22,23,24,25,26,27,28,29,30},
	{3,4,5,6,7,8,9,10,11,12,13,14,15,16,17,18,19,20,21,22,23,24,25,26,27,28,29,30},
	{1,2,3,4,5,6,7,8,9,10,11,12,13,14,15,16,17,18,20,21,22,23,24,26,27,28,29,30},
	{1,2,3,4,5,7,8,10,11,12,13,14,15,17,18,19,20,22,23,24,25,26,28,29,30},
	{1,2,3,4,5,6,7,8,9,10,11,12,13,14,15,16,17,18,19,20,21,22,23,24,25,26,27,28,29,30},
	{3,4,5,7,8,10,11,12,13,14,15,17,18,19,20,22,23,24,25,26,28,29,30},
	{1,2,3,4,5,6,7,8,9,10,11,12,13,14,15,16,17,18,19,20,21,22,23,24,26,27,28,29,30},
	{1,2,3,4,5,6,7,8,9,10,11,12,13,14,15,16,17,18,19,20,21,22,23,24,25,26,27,28,29,30},
	{1,2,3,4,5,6,7,8,9,10,11,12,13,14,15,16,17,18,19,20,21,22,23,24,25,26,27,28,29,30},
	{3,4,5,6,7,8,9,10,11,12,13,14,15,16,17,18,19,20,21,22,23,24,25,26,27,28,29,30},
	{1,2,3,4,5,6,7,8,9,10,11,12,13,14,15,16,17,18,19,20,21,22,23,24,26,27,28,29,30},
	{}];

POTENTIAL_ACT = [{2,3,4,5,6,7,8,10,11,12,13,14,16,17,20,24,25,28,30,31,33,34,35,37,38,39,41},
	{2,3,4,5,6,7,8,10,11,12,13,14,16,17,20,24,25,28,30,31,33,34,35,37,38,39,41},
	{2,3,4,5,6,8,9,10,11,12,13,14,15,16,17,18,19,20,21,22,23,24,25,26,27,29,30,31,32,33,34,35,36,37,38,39,40,41},
	{2,3,4,5,6,7,8,9,10,11,12,13,14,15,16,17,18,19,20,21,22,23,24,25,26,27,28,29,30,31,32,33,34,35,36,37,38,39,40,41},
	{2,3,4,5,6,7,8,9,10,11,12,13,14,15,16,17,18,19,20,21,22,24,25,26,28,29,30,31,32,33,34,35,36,37,38,39,40,41},
	{2,3,8,9,10,11,13,14,15,16,18,19,20,21,22,23,24,25,26,27,29,30,31,32,33,35,37,38,39,40,41},
	{2,3,4,6,7,8,9,10,11,12,13,14,15,16,17,18,19,20,21,22,23,24,25,26,27,28,29,30,31,32,33,34,35,36,37,38,39,40,41},
	{2,3,4,5,6,8,9,10,11,12,13,14,15,16,17,18,19,20,21,22,23,24,25,26,27,29,30,31,32,33,34,35,36,37,38,39,40,41},
	{2,3,8,9,10,11,13,14,15,16,18,19,20,21,22,23,24,25,26,27,29,30,31,32,33,35,37,38,39,40,41},
	{2,3,4,5,6,8,9,10,11,12,13,14,15,16,17,18,19,20,21,22,23,24,25,26,27,29,30,31,32,33,34,35,36,37,38,39,40,41},
	{2,3,4,5,6,7,8,9,10,11,12,13,14,15,16,17,18,19,20,21,22,23,24,25,26,27,28,29,30,31,32,33,34,35,36,37,38,39,40,41},
	{2,3,4,5,6,7,8,9,10,11,12,13,14,15,16,17,18,19,20,21,22,23,24,25,26,27,28,29,30,31,32,33,34,35,36,37,38,39,40,41},
	{2,3,4,5,6,7,8,9,10,11,12,13,14,15,16,17,18,19,20,21,22,23,24,25,26,27,28,29,30,31,32,33,34,35,36,37,38,39,40,41},
	{2,3,4,5,6,7,8,9,10,11,12,13,14,15,16,17,18,19,20,21,22,23,24,25,26,27,28,29,30,31,32,33,34,35,36,37,38,39,40,41},
	{2,3,4,5,6,7,8,9,10,11,12,13,14,15,16,17,18,19,20,21,22,24,25,26,28,29,30,31,32,33,34,35,36,37,38,39,40,41},
	{2,3,8,9,10,11,13,14,15,16,18,19,20,21,22,23,24,25,26,27,29,30,31,32,33,35,37,38,39,40,41},
	{2,3,4,5,6,7,8,9,10,11,12,13,14,15,16,17,18,19,20,21,22,23,24,25,26,27,28,29,30,31,32,33,34,35,36,37,38,39,40,41},
	{2,3,4,5,6,7,8,9,10,11,12,13,14,15,16,17,18,19,20,21,22,23,24,25,26,27,28,29,30,31,32,33,34,35,36,37,38,39,40,41},
	{2,3,4,5,6,7,8,9,10,11,12,13,14,15,16,17,18,19,20,21,22,23,24,25,26,27,28,29,30,31,32,34,35,36,37,38,39,40,41},
	{2,3,4,5,6,7,8,9,10,11,12,13,14,15,16,17,18,19,20,21,22,24,25,26,28,29,30,31,32,33,34,35,36,37,38,39,40,41},
	{2,3,8,9,10,11,13,14,15,16,18,19,20,21,22,23,24,25,26,27,29,30,31,32,33,35,37,38,39,40,41},
	{2,3,4,5,6,7,8,9,10,11,12,13,14,15,16,17,18,19,20,21,22,23,24,25,26,27,28,29,30,31,32,33,34,35,36,37,38,39,40,41},
	{2,3,4,5,6,7,8,9,10,11,12,13,14,15,16,17,18,19,20,21,22,23,24,25,26,27,28,29,30,31,32,33,34,35,36,37,38,39,40,41},
	{2,3,4,5,6,7,8,9,10,11,12,13,14,15,16,17,18,19,20,21,22,23,24,25,26,27,28,29,30,31,32,33,34,35,36,37,38,39,40,41},
	{2,3,4,6,7,8,9,10,11,12,13,14,15,16,17,20,21,23,26,27,28,29,30,31,32,34,35,36,38,39,40},
	{2,3,4,5,6,7,8,9,10,11,12,13,14,15,16,17,18,19,20,21,22,23,24,25,26,27,28,29,30,31,32,33,34,35,36,37,38,39,40,41},
	{2,3,8,9,10,11,13,14,15,16,18,19,20,21,22,23,24,25,26,27,29,30,31,32,33,35,37,38,39,40,41},
	{2,3,4,5,6,7,8,9,10,11,12,13,14,15,16,17,18,19,20,21,22,23,24,25,26,27,28,29,30,31,32,33,34,35,36,37,38,39,40,41},
	{2,3,4,5,6,7,8,9,10,11,12,13,14,15,16,17,18,19,20,21,22,23,24,25,26,27,28,29,30,31,32,33,34,35,36,37,38,39,40,41},
	{2,3,4,5,6,7,8,9,10,11,12,13,14,15,16,17,18,19,20,21,22,24,25,26,28,29,30,31,32,33,34,35,36,37,38,39,40,41}];
